(set-option :print-success false)
(set-logic QF_UF)
(declare-sort x144 0)
(declare-sort x80 0)
(declare-fun x156 () x80)
(declare-fun x116 () x80)
(declare-fun x115 (x80 x80) x80)
(declare-fun x136 (x80 x80) x80)
(declare-fun x60 () x80)
(declare-fun x30 () x80)
(declare-fun x123 () x80)
(assert (let ((x73 (x115 x30 x116)) (x75 (x115 x156 x30)) (x47 (x115 x116 x30)) (x23 (x115 x156 x123)) (x97 (x115 x123 x123)) (x102 (x115 x30 x156)) (x34 (x115 x123 x60)) (x1 (x115 x60 x30)) (x10 (x115 x116 x60)) (x7 (x115 x123 x116)) (x130 (x115 x60 x60)) (x77 (x115 x60 x116)) (x19 (x115 x123 x30)) (x157 (x115 x156 x60)) (x72 (x115 x123 x156)) (x87 (x115 x156 x156)) (x31 (x115 x30 x60)) (x67 (x115 x156 x116)) (x43 (x115 x116 x116)) (x103 (x115 x30 x30)) (x17 (x115 x116 x123)) (x92 (x115 x116 x156)) (x133 (x115 x60 x156)) (x12 (x115 x60 x123)) (x111 (x115 x30 x123))) (and (or (= x30 (x115 x103 x103)) (or (or (or (= (x115 x75 x75) x156) (= (x115 x19 x19) x123)) (= (x115 x1 x1) x60)) (= x116 (x115 x47 x47)))) (and (or (= (x115 x73 x73) x30) (or (= x116 (x115 x43 x43)) (or (or (= x156 (x115 x67 x67)) (= (x115 x7 x7) x123)) (= (x115 x77 x77) x60)))) (and (and (or (= (x115 x111 x111) x30) (or (= x116 (x115 x17 x17)) (or (or (= (x115 x23 x23) x156) (= x123 (x115 x97 x97))) (= x60 (x115 x12 x12))))) (or (= (x115 x102 x102) x30) (or (= (x115 x92 x92) x116) (or (= (x115 x133 x133) x60) (or (= (x115 x72 x72) x123) (= x156 (x115 x87 x87))))))) (or (= (x115 x31 x31) x30) (or (= (x115 x10 x10) x116) (or (or (= (x115 x34 x34) x123) (= x156 (x115 x157 x157))) (= x60 (x115 x130 x130))))))))))
(assert (not (and (= x156 (x115 x30 x30)) (and (and (= (x115 x30 x60) x60) (and (= (x115 x30 x123) x116) (and (and (and (and (= x123 (x115 x116 x60)) (and (= x60 (x115 x116 x123)) (and (= x116 (x115 x116 x156)) (and (= x116 (x115 x60 x30)) (and (and (and (= x123 (x115 x60 x123)) (and (= x156 (x115 x60 x156)) (and (and (and (= (x115 x123 x60) x116) (and (and (= x123 (x115 x123 x156)) (and (= x123 (x115 x156 x30)) (and (= x116 (x115 x156 x116)) (and (and (= (x115 x156 x123) x30) (= (x115 x156 x156) x60)) (= x156 (x115 x156 x60)))))) (= (x115 x123 x123) x156))) (= (x115 x123 x116) x30)) (= (x115 x123 x30) x60)))) (= x30 (x115 x60 x60))) (= (x115 x60 x116) x60)))))) (= x156 (x115 x116 x116))) (= x30 (x115 x116 x30))) (= (x115 x30 x156) x30)))) (= x123 (x115 x30 x116))))))
(assert (and (or (= x30 (x115 x30 (x115 x30 x30))) (or (or (= (x115 x30 (x115 x30 x60)) x60) (or (= x123 (x115 x30 (x115 x30 x123))) (= x156 (x115 x30 (x115 x30 x156))))) (= (x115 x30 (x115 x30 x116)) x116))) (and (and (or (= x30 (x115 x60 (x115 x60 x30))) (or (or (= x60 (x115 x60 (x115 x60 x60))) (or (= x156 (x115 x60 (x115 x60 x156))) (= x123 (x115 x60 (x115 x60 x123))))) (= (x115 x60 (x115 x60 x116)) x116))) (and (or (= x30 (x115 x123 (x115 x123 x30))) (or (or (= (x115 x123 (x115 x123 x60)) x60) (or (= x123 (x115 x123 (x115 x123 x123))) (= (x115 x123 (x115 x123 x156)) x156))) (= (x115 x123 (x115 x123 x116)) x116))) (or (= (x115 x156 (x115 x156 x30)) x30) (or (or (or (= x156 (x115 x156 (x115 x156 x156))) (= x123 (x115 x156 (x115 x156 x123)))) (= x60 (x115 x156 (x115 x156 x60)))) (= (x115 x156 (x115 x156 x116)) x116))))) (or (= x30 (x115 x116 (x115 x116 x30))) (or (or (= (x115 x116 (x115 x116 x60)) x60) (or (= x156 (x115 x116 (x115 x116 x156))) (= x123 (x115 x116 (x115 x116 x123))))) (= x116 (x115 x116 (x115 x116 x116))))))))
(assert (let ((x12 (x115 x123 x60)) (x97 (x115 x60 x123)) (x103 (= x30 (x115 x30 x30))) (x157 (x115 x156 x116)) (x43 (x115 x30 x123)) (x73 (x115 x123 x30)) (x92 (= x123 (x115 x123 x123))) (x23 (x115 x156 x60)) (x130 (x115 x123 x116)) (x87 (= x156 (x115 x156 x156))) (x31 (x115 x60 x116)) (x75 (x115 x30 x60)) (x34 (x115 x116 x123)) (x17 (= x60 (x115 x60 x60))) (x7 (x115 x30 x156)) (x133 (x115 x156 x123)) (x10 (x115 x116 x60)) (x19 (x115 x60 x30)) (x1 (x115 x30 x116)) (x77 (x115 x156 x30)) (x102 (x115 x60 x156)) (x47 (x115 x116 x30)) (x111 (x115 x116 x156)) (x72 (x115 x123 x156)) (x67 (= (x115 x116 x116) x116))) (or (or (or (or (and (= x75 x30) (= x19 x30)) (or (and (= x30 x7) (= x77 x30)) (and (= x43 x30) (= x30 x73)))) (and (= x47 x30) (= x30 x1))) (and x103 x103)) (or (or (and (= x116 x1) (= x47 x116)) (or (or (or (and (= x34 x116) (= x116 x130)) (and (= x116 x157) (= x116 x111))) (and (= x31 x116) (= x116 x10))) (and x67 x67))) (or (or (and (= x19 x60) (= x60 x75)) (or (or (or (and (= x60 x102) (= x60 x23)) (and (= x60 x97) (= x60 x12))) (and x17 x17)) (and (= x60 x31) (= x60 x10)))) (or (or (or (or (or (and (= x156 x133) (= x72 x156)) (and x87 x87)) (and (= x23 x156) (= x102 x156))) (and (= x111 x156) (= x157 x156))) (and (= x156 x77) (= x156 x7))) (or (and (= x43 x123) (= x123 x73)) (or (and (= x123 x34) (= x123 x130)) (or (or (and x92 x92) (and (= x123 x133) (= x123 x72))) (and (= x123 x97) (= x123 x12)))))))))))
(assert (let ((x92 (x115 x116 x116)) (x102 (x115 x30 x30)) (x133 (x115 x60 x60)) (x72 (x115 x123 x123)) (x87 (x115 x156 x156))) (or (and (not (= x30 x102)) (and (not (= x92 x30)) (and (and (not (= x87 x30)) (not (= x30 x72))) (not (= x30 x133))))) (or (or (and (not (= x60 x102)) (and (and (and (not (= x60 x87)) (not (= x72 x60))) (not (= x60 x133))) (not (= x60 x92)))) (or (and (not (= x102 x123)) (and (and (not (= x133 x123)) (and (not (= x72 x123)) (not (= x123 x87)))) (not (= x92 x123)))) (and (and (and (not (= x156 x133)) (and (not (= x156 x87)) (not (= x72 x156)))) (not (= x92 x156))) (not (= x156 x102))))) (and (not (= x116 x102)) (and (not (= x92 x116)) (and (not (= x116 x133)) (and (not (= x87 x116)) (not (= x116 x72))))))))))
(assert (let ((x101 (x115 x123 x123)) (x59 (x115 x116 x123)) (x125 (x115 x116 x60)) (x20 (x115 x156 x123)) (x28 (x115 x156 x156)) (x110 (x115 x30 x116)) (x61 (x115 x60 x156)) (x66 (x115 x123 x116)) (x94 (x115 x60 x116)) (x15 (x115 x30 x156)) (x68 (x115 x60 x30)) (x118 (x115 x123 x30)) (x86 (x115 x30 x60)) (x25 (x115 x60 x60)) (x158 (x115 x30 x30)) (x93 (x115 x116 x30)) (x137 (x115 x156 x60)) (x122 (x115 x123 x60)) (x52 (x115 x116 x116)) (x78 (x115 x60 x123)) (x16 (x115 x156 x116)) (x54 (x115 x123 x156)) (x27 (x115 x30 x123)) (x108 (x115 x156 x30)) (x153 (x115 x116 x156))) (let ((x102 (not (= x156 x61))) (x130 (not (= x156 x66))) (x74 (not (= x15 x30))) (x91 (not (= x123 x122))) (x135 (not (= x54 x123))) (x57 (not (= x60 x86))) (x72 (not (= x54 x156))) (x1 (not (= x156 x110))) (x10 (not (= x125 x156))) (x42 (not (= x16 x116))) (x139 (not (= x101 x123))) (x154 (not (= x60 x158))) (x5 (not (= x86 x116))) (x120 (not (= x123 x108))) (x75 (not (= x86 x156))) (x152 (not (= x94 x123))) (x159 (not (= x123 x153))) (x19 (not (= x68 x156))) (x104 (not (= x122 x60))) (x128 (not (= x123 x28))) (x70 (not (= x60 x108))) (x18 (not (= x60 x125))) (x83 (not (= x137 x116))) (x45 (not (= x101 x116))) (x90 (not (= x110 x30))) (x34 (not (= x59 x156))) (x39 (not (= x123 x52))) (x149 (not (= x61 x60))) (x2 (not (= x25 x60))) (x98 (not (= x125 x116))) (x96 (not (= x28 x30))) (x12 (not (= x122 x156))) (x87 (not (= x28 x156))) (x7 (not (= x156 x15))) (x127 (not (= x59 x60))) (x8 (not (= x60 x118))) (x22 (not (= x60 x68))) (x113 (not (= x123 x125))) (x124 (not (= x28 x60))) (x95 (not (= x101 x30))) (x65 (not (= x54 x60))) (x89 (not (= x28 x116))) (x157 (not (= x156 x16))) (x151 (not (= x16 x60))) (x99 (not (= x116 x27))) (x21 (not (= x153 x30))) (x17 (not (= x25 x156))) (x121 (not (= x116 x118))) (x146 (not (= x27 x123))) (x41 (not (= x158 x123))) (x84 (not (= x60 x20))) (x63 (not (= x93 x116))) (x26 (not (= x108 x30))) (x9 (not (= x122 x116))) (x103 (not (= x156 x158))) (x40 (not (= x93 x60))) (x53 (not (= x137 x30))) (x71 (not (= x60 x52))) (x88 (not (= x59 x123))) (x114 (not (= x60 x78))) (x69 (not (= x123 x15))) (x46 (not (= x123 x66))) (x143 (not (= x116 x78))) (x107 (not (= x30 x54))) (x4 (not (= x60 x15))) (x140 (not (= x78 x123))) (x43 (not (= x156 x27))) (x126 (not (= x16 x30))) (x67 (not (= x156 x52))) (x105 (not (= x60 x101))) (x50 (not (= x30 x118))) (x35 (not (= x116 x25))) (x13 (not (= x30 x122))) (x129 (not (= x78 x30))) (x85 (not (= x59 x30))) (x29 (not (= x30 x158))) (x117 (not (= x30 x20))) (x14 (not (= x116 x158))) (x23 (not (= x137 x156))) (x55 (not (= x116 x110))) (x79 (not (= x153 x116))) (x106 (not (= x116 x94))) (x33 (not (= x27 x30))) (x142 (not (= x110 x60))) (x58 (not (= x30 x61))) (x155 (not (= x15 x116))) (x148 (not (= x123 x68))) (x32 (not (= x66 x116))) (x37 (not (= x68 x30))) (x81 (not (= x123 x25))) (x112 (not (= x116 x20))) (x141 (not (= x123 x118))) (x77 (not (= x156 x108))) (x36 (not (= x137 x60))) (x76 (not (= x60 x27))) (x49 (not (= x137 x123))) (x38 (not (= x16 x123))) (x6 (not (= x52 x116))) (x150 (not (= x30 x86))) (x31 (not (= x94 x156))) (x145 (not (= x110 x123))) (x48 (not (= x60 x94))) (x64 (not (= x61 x123))) (x109 (not (= x60 x153))) (x134 (not (= x125 x30))) (x131 (not (= x108 x116))) (x111 (not (= x156 x153))) (x47 (not (= x156 x93))) (x24 (not (= x116 x59))) (x100 (not (= x30 x25))) (x82 (not (= x123 x86))) (x11 (not (= x66 x30))) (x73 (not (= x156 x118))) (x147 (not (= x123 x20))) (x3 (not (= x66 x60))) (x133 (not (= x156 x20))) (x44 (not (= x68 x116))) (x138 (not (= x123 x93))) (x97 (not (= x156 x78))) (x92 (not (= x156 x101))) (x132 (not (= x30 x52))) (x51 (not (= x93 x30))) (x119 (not (= x116 x61))) (x56 (not (= x94 x30))) (x62 (not (= x116 x54)))) (or (and (and (and (or x90 x51) (and (or x150 x37) (and (or x74 x26) (or x50 x33)))) (or x29 x29)) (and (and (and (and (or x56 x134) (and (and (or x58 x53) (or x129 x13)) (or x100 x100))) (or x150 x37)) (and (and (or x74 x26) (and (and (and (or x96 x96) (or x117 x107)) (or x58 x53)) (or x21 x126))) (and (or x50 x33) (and (or x11 x85) (and (and (or x107 x117) (or x95 x95)) (or x13 x129)))))) (and (or x90 x51) (and (or x132 x132) (and (and (or x11 x85) (or x126 x21)) (or x134 x56)))))) (or (or (or (and (and (and (or x47 x1) (and (and (or x10 x31) (and (or x34 x130) (or x157 x111))) (or x67 x67))) (and (and (and (or x77 x7) (and (and (and (or x87 x87) (or x72 x133)) (or x102 x23)) (or x111 x157))) (and (and (and (or x97 x12) (and (or x92 x92) (or x133 x72))) (or x130 x34)) (or x43 x73))) (and (and (or x10 x31) (and (and (or x97 x12) (or x102 x23)) (or x17 x17))) (or x19 x75)))) (and (or x103 x103) (and (and (or x19 x75) (and (or x7 x77) (or x43 x73))) (or x47 x1)))) (and (and (and (and (and (and (or x159 x38) (and (and (or x128 x128) (or x135 x147)) (or x49 x64))) (or x120 x69)) (and (and (and (and (or x139 x139) (or x147 x135)) (or x140 x91)) (or x46 x88)) (or x146 x141))) (and (or x82 x148) (and (and (or x81 x81) (and (or x64 x49) (or x140 x91))) (or x113 x152)))) (and (or x138 x145) (and (and (or x113 x152) (and (or x46 x88) (or x159 x38))) (or x39 x39)))) (and (or x41 x41) (and (and (or x82 x148) (and (or x146 x141) (or x69 x120))) (or x138 x145))))) (and (and (and (or x142 x40) (and (or x22 x57) (and (or x70 x4) (or x76 x8)))) (or x154 x154)) (and (and (and (or x22 x57) (and (and (and (or x104 x114) (or x149 x36)) (or x2 x2)) (or x48 x18))) (and (and (or x4 x70) (and (and (or x36 x149) (and (or x65 x84) (or x124 x124))) (or x151 x109))) (and (or x8 x76) (and (or x3 x127) (and (and (or x105 x105) (or x65 x84)) (or x104 x114)))))) (and (or x142 x40) (and (and (and (or x151 x109) (or x3 x127)) (or x18 x48)) (or x71 x71)))))) (and (and (and (or x55 x63) (and (or x6 x6) (and (or x106 x98) (and (or x32 x24) (or x42 x79))))) (and (and (and (and (or x24 x32) (and (and (or x62 x112) (or x45 x45)) (or x9 x143))) (or x121 x99)) (and (and (or x79 x42) (and (and (or x112 x62) (or x89 x89)) (or x119 x83))) (or x155 x131))) (and (or x5 x44) (and (or x98 x106) (and (or x35 x35) (and (or x83 x119) (or x143 x9))))))) (and (and (and (or x44 x5) (and (or x121 x99) (or x131 x155))) (or x63 x55)) (or x14 x14))))))))
(assert (let ((x34 (x115 x60 x123)) (x77 (x115 x116 x60)) (x12 (x115 x123 x60)) (x7 (x115 x116 x123)) (x73 (x115 x116 x30)) (x102 (x115 x156 x30)) (x111 (x115 x123 x30)) (x130 (x115 x60 x60)) (x75 (x115 x30 x156)) (x157 (x115 x60 x156)) (x92 (x115 x156 x116)) (x10 (x115 x60 x116)) (x43 (x115 x116 x116)) (x19 (x115 x30 x123)) (x67 (x115 x116 x156)) (x47 (x115 x30 x116)) (x31 (x115 x60 x30)) (x87 (x115 x156 x156)) (x23 (x115 x123 x156)) (x17 (x115 x123 x116)) (x1 (x115 x30 x60)) (x133 (x115 x156 x60)) (x97 (x115 x123 x123)) (x72 (x115 x156 x123)) (x103 (x115 x30 x30))) (and (and (and (and (and (and (and (and (or (or (or (= x87 x60) (or (= x87 x123) (= x87 x156))) (= x116 x87)) (= x87 x30)) (or (= x72 x30) (or (= x116 x72) (or (= x72 x60) (or (= x72 x156) (= x123 x72)))))) (or (or (or (= x133 x60) (or (= x133 x123) (= x156 x133))) (= x116 x133)) (= x30 x133))) (or (or (or (= x60 x92) (or (= x92 x156) (= x92 x123))) (= x92 x116)) (= x92 x30))) (or (= x102 x30) (or (or (= x60 x102) (or (= x123 x102) (= x156 x102))) (= x102 x116)))) (and (or (= x111 x30) (or (= x116 x111) (or (or (= x111 x123) (= x111 x156)) (= x60 x111)))) (and (and (or (or (= x116 x12) (or (= x60 x12) (or (= x12 x123) (= x156 x12)))) (= x30 x12)) (and (or (= x30 x97) (or (= x116 x97) (or (= x60 x97) (or (= x97 x156) (= x97 x123))))) (or (= x23 x30) (or (= x23 x116) (or (= x23 x60) (or (= x23 x156) (= x123 x23))))))) (or (or (= x116 x17) (or (= x60 x17) (or (= x123 x17) (= x156 x17)))) (= x17 x30))))) (and (or (or (or (= x60 x31) (or (= x156 x31) (= x31 x123))) (= x31 x116)) (= x30 x31)) (and (or (= x10 x30) (or (= x116 x10) (or (= x10 x60) (or (= x123 x10) (= x156 x10))))) (and (or (or (= x116 x130) (or (or (= x130 x123) (= x156 x130)) (= x130 x60))) (= x130 x30)) (and (or (or (or (or (= x34 x123) (= x34 x156)) (= x60 x34)) (= x34 x116)) (= x30 x34)) (or (= x30 x157) (or (or (= x157 x60) (or (= x123 x157) (= x157 x156))) (= x116 x157)))))))) (and (and (and (and (or (or (= x116 x7) (or (= x60 x7) (or (= x7 x156) (= x123 x7)))) (= x7 x30)) (or (or (= x116 x67) (or (= x67 x60) (or (= x67 x156) (= x67 x123)))) (= x30 x67))) (or (= x77 x30) (or (= x77 x116) (or (or (= x77 x123) (= x156 x77)) (= x60 x77))))) (or (= x43 x30) (or (or (or (= x43 x123) (= x43 x156)) (= x60 x43)) (= x43 x116)))) (or (= x73 x30) (or (or (= x60 x73) (or (= x73 x156) (= x123 x73))) (= x116 x73))))) (and (and (and (or (or (or (= x60 x1) (or (= x123 x1) (= x156 x1))) (= x116 x1)) (= x30 x1)) (and (or (or (= x116 x75) (or (= x75 x60) (or (= x75 x156) (= x75 x123)))) (= x30 x75)) (or (or (= x116 x19) (or (or (= x19 x156) (= x123 x19)) (= x60 x19))) (= x30 x19)))) (or (= x47 x30) (or (= x116 x47) (or (= x47 x60) (or (= x123 x47) (= x156 x47)))))) (or (= x103 x30) (or (or (or (= x123 x103) (= x103 x156)) (= x103 x60)) (= x116 x103)))))))
(assert (and (and (not (= x60 x30)) (and (and (not (= x30 x123)) (and (and (and (and (and (not (= x156 x123)) (not (= x60 x156))) (not (= x156 x116))) (not (= x156 x30))) (not (= x123 x60))) (not (= x123 x116)))) (not (= x116 x60)))) (not (= x30 x116))))
(assert (let ((x19 (x115 x123 x30)) (x128 (x115 x30 x123)) (x104 (x115 x30 x116)) (x131 (x115 x30 x30)) (x102 (x115 x156 x116)) (x23 (x115 x156 x30)) (x118 (x115 x60 x60)) (x17 (x115 x60 x156)) (x133 (x115 x156 x123)) (x73 (x115 x123 x60)) (x72 (x115 x156 x156)) (x75 (x115 x123 x116)) (x92 (x115 x156 x60)) (x111 (x115 x116 x156)) (x65 (x115 x116 x116)) (x84 (x115 x116 x30)) (x25 (x115 x116 x60)) (x81 (x115 x30 x60)) (x64 (x115 x60 x30)) (x12 (x115 x123 x156)) (x157 (x115 x30 x156)) (x28 (x115 x116 x123)) (x43 (x115 x123 x123)) (x27 (x115 x60 x116)) (x103 (x115 x60 x123))) (let ((x153 (= x116 x43)) (x112 (= x30 x27)) (x152 (= x116 x118)) (x15 (= x30 x133)) (x67 (= x133 x156)) (x74 (= x157 x30)) (x95 (= x19 x60)) (x122 (= x156 x73)) (x94 (= x17 x60)) (x146 (= x28 x156)) (x11 (= x19 x116)) (x55 (= x123 x131)) (x24 (= x156 x84)) (x58 (= x64 x60)) (x158 (= x111 x123)) (x113 (= x116 x73)) (x57 (= x116 x27)) (x21 (= x116 x81)) (x45 (= x30 x65)) (x53 (= x60 x84)) (x114 (= x123 x65)) (x91 (= x123 x118)) (x62 (= x30 x75)) (x134 (= x116 x64)) (x140 (= x73 x123)) (x36 (= x27 x123)) (x155 (= x123 x104)) (x121 (= x123 x19)) (x3 (= x75 x60)) (x47 (= x43 x123)) (x82 (= x102 x156)) (x42 (= x64 x156)) (x137 (= x60 x43)) (x8 (= x75 x116)) (x4 (= x28 x116)) (x85 (= x23 x116)) (x39 (= x103 x30)) (x141 (= x156 x25)) (x139 (= x92 x156)) (x6 (= x123 x81)) (x145 (= x27 x156)) (x44 (= x84 x123)) (x87 (= x156 x72)) (x106 (= x128 x123)) (x51 (= x84 x30)) (x99 (= x23 x123)) (x32 (= x156 x131)) (x147 (= x156 x17)) (x88 (= x116 x103)) (x26 (= x128 x30)) (x110 (= x73 x30)) (x5 (= x123 x64)) (x68 (= x60 x92)) (x69 (= x118 x30)) (x151 (= x60 x25)) (x48 (= x65 x60)) (x22 (= x116 x65)) (x31 (= x12 x156)) (x76 (= x116 x102)) (x18 (= x27 x60)) (x7 (= x43 x156)) (x143 (= x81 x156)) (x86 (= x73 x60)) (x98 (= x157 x123)) (x101 (= x103 x156)) (x54 (= x133 x60)) (x138 (= x156 x65)) (x109 (= x28 x60)) (x34 (= x72 x60)) (x37 (= x19 x30)) (x93 (= x92 x30)) (x132 (= x116 x131)) (x130 (= x116 x72)) (x127 (= x102 x60)) (x119 (= x156 x157)) (x71 (= x111 x116)) (x14 (= x60 x128)) (x9 (= x104 x156)) (x1 (= x123 x133)) (x148 (= x156 x75)) (x41 (= x28 x123)) (x70 (= x116 x25)) (x20 (= x60 x12)) (x2 (= x60 x111)) (x100 (= x128 x116)) (x154 (= x25 x30)) (x10 (= x30 x72)) (x83 (= x156 x128)) (x142 (= x30 x111)) (x107 (= x104 x60)) (x90 (= x30 x64)) (x13 (= x116 x157)) (x59 (= x123 x103)) (x117 (= x60 x23)) (x66 (= x17 x123)) (x78 (= x118 x156)) (x150 (= x23 x30)) (x49 (= x92 x123)) (x38 (= x17 x116)) (x97 (= x123 x72)) (x79 (= x19 x156)) (x46 (= x92 x116)) (x108 (= x30 x12)) (x35 (= x156 x23)) (x159 (= x118 x60)) (x40 (= x30 x28)) (x124 (= x123 x25)) (x105 (= x102 x123)) (x126 (= x104 x116)) (x29 (= x30 x131)) (x50 (= x30 x104)) (x129 (= x131 x60)) (x61 (= x116 x12)) (x63 (= x60 x157)) (x96 (= x60 x81)) (x56 (= x116 x84)) (x77 (= x123 x12)) (x125 (= x103 x60)) (x135 (= x43 x30)) (x33 (= x30 x81)) (x52 (= x17 x30)) (x120 (= x156 x111)) (x89 (= x102 x30)) (x149 (= x75 x123)) (x16 (= x133 x116))) (and (and (and (and (and (and (and (or (or (or x38 (or x61 x130)) x71) x13) (or (or (or x46 (or x16 x130)) x76) x85)) (and (and (or (or x127 (or (or x54 x34) x68)) x117) (or (or x2 (or (or x34 x20) x94)) x63)) (and (and (or x99 (or x105 (or (or x97 x1) x49))) (or (or (or (or x97 x77) x66) x158) x98)) (and (or (or x120 (or x147 (or x31 x87))) x119) (or (or x82 (or (or x67 x87) x139)) x35))))) (and (or (or (or x93 (or x10 x15)) x89) x150) (or (or x142 (or (or x108 x10) x52)) x74))) (and (and (or (or x62 (or x110 (or x135 x108))) x37) (or (or (or (or x15 x135) x39) x40) x26)) (and (and (and (or (or x109 (or (or x137 x54) x125)) x14) (or (or (or (or x137 x20) x86) x3) x95)) (and (and (or (or (or x101 (or x67 x7)) x146) x83) (or (or (or x122 (or x31 x7)) x148) x79)) (and (or x121 (or x149 (or x140 (or x47 x77)))) (or x106 (or (or x59 (or x47 x1)) x41))))) (and (or x11 (or x8 (or (or x61 x153) x113))) (or x100 (or (or (or x153 x16) x88) x4)))))) (and (and (or (or (or x69 (or x110 x93)) x154) x33) (or (or x112 (or (or x39 x52) x69)) x90)) (and (and (and (and (or (or x124 (or (or x49 x140) x91)) x6) (or (or (or x91 (or x66 x59)) x36) x5)) (and (or x143 (or (or (or x139 x122) x78) x141)) (or (or (or (or x101 x147) x78) x145) x42))) (and (or x58 (or (or (or x125 x94) x159) x18)) (or (or x151 (or (or x68 x86) x159)) x96))) (and (or (or (or (or x46 x113) x152) x70) x21) (or (or (or x152 (or x38 x88)) x57) x134))))) (and (and (or (or (or x154 (or x40 x142)) x45) x51) (or x50 (or x45 (or (or x89 x62) x112)))) (and (and (and (or x53 (or x48 (or x151 (or x109 x2)))) (or (or (or x18 (or x127 x3)) x48) x107)) (and (and (or x44 (or x114 (or (or x158 x41) x124))) (or (or x114 (or x36 (or x149 x105))) x155)) (and (or x24 (or x138 (or x141 (or x120 x146)))) (or x9 (or (or x145 (or x82 x148)) x138))))) (and (or (or (or x70 (or x4 x71)) x22) x56) (or x126 (or x22 (or x57 (or x76 x8)))))))) (and (and (or x29 (or (or (or x37 x150) x90) x51)) (or x29 (or x50 (or (or x74 x26) x33)))) (and (and (or (or (or (or x13 x100) x21) x126) x132) (or x132 (or x56 (or (or x85 x11) x134)))) (and (and (or x129 (or (or (or x95 x117) x58) x53)) (or (or (or (or x14 x63) x96) x107) x129)) (and (and (or x32 (or (or (or x35 x79) x42) x24)) (or x32 (or (or x143 (or x83 x119)) x9))) (and (or (or (or (or x121 x99) x5) x44) x55) (or (or x155 (or x6 (or x98 x106))) x55))))))))))
(assert (let ((x23 (x115 x156 x123)) (x72 (x115 x123 x156)) (x75 (x115 x156 x30)) (x67 (x115 x156 x116)) (x111 (x115 x30 x123)) (x31 (x115 x30 x60)) (x7 (x115 x123 x116)) (x17 (x115 x116 x123)) (x133 (x115 x60 x156)) (x10 (x115 x116 x60)) (x157 (x115 x156 x60)) (x43 (x115 x116 x116)) (x12 (x115 x60 x123)) (x73 (x115 x30 x116)) (x1 (x115 x60 x30)) (x77 (x115 x60 x116)) (x87 (x115 x156 x156)) (x130 (x115 x60 x60)) (x103 (x115 x30 x30)) (x34 (x115 x123 x60)) (x19 (x115 x123 x30)) (x97 (x115 x123 x123)) (x102 (x115 x30 x156)) (x92 (x115 x116 x156)) (x47 (x115 x116 x30))) (and (and (and (not (= x73 x103)) (and (and (not (= x73 x31)) (and (and (not (= x73 x111)) (and (not (= x111 x31)) (and (not (= x102 x103)) (and (not (= x73 x102)) (and (not (= x31 x102)) (not (= x111 x102))))))) (not (= x103 x111)))) (not (= x103 x31)))) (and (and (and (and (and (and (and (not (= x23 x75)) (and (and (not (= x23 x157)) (and (and (and (not (= x87 x23)) (not (= x87 x157))) (not (= x67 x87))) (not (= x75 x87)))) (not (= x23 x67)))) (not (= x157 x67))) (not (= x157 x75))) (not (= x75 x67))) (and (and (not (= x19 x34)) (and (not (= x7 x34)) (and (and (and (not (= x97 x34)) (and (not (= x19 x72)) (and (not (= x7 x72)) (and (not (= x97 x72)) (not (= x34 x72)))))) (not (= x97 x7))) (not (= x97 x19))))) (not (= x7 x19)))) (and (and (and (not (= x77 x130)) (and (not (= x12 x1)) (and (not (= x12 x77)) (and (and (not (= x133 x1)) (and (not (= x133 x77)) (and (not (= x12 x133)) (not (= x130 x133))))) (not (= x12 x130)))))) (not (= x130 x1))) (not (= x1 x77)))) (and (and (and (not (= x43 x10)) (and (and (and (not (= x17 x10)) (and (and (and (not (= x92 x10)) (not (= x92 x17))) (not (= x92 x43))) (not (= x92 x47)))) (not (= x43 x17))) (not (= x47 x17)))) (not (= x47 x10))) (not (= x43 x47))))) (and (and (not (= x103 x47)) (and (and (not (= x1 x47)) (and (not (= x103 x19)) (and (and (not (= x1 x19)) (and (and (and (not (= x1 x75)) (not (= x19 x75))) (not (= x47 x75))) (not (= x103 x75)))) (not (= x47 x19))))) (not (= x103 x1)))) (and (and (and (and (not (= x31 x130)) (and (and (and (not (= x34 x10)) (and (and (and (and (not (= x157 x130)) (not (= x34 x157))) (not (= x10 x157))) (not (= x157 x31))) (not (= x34 x130)))) (not (= x34 x31))) (not (= x10 x130)))) (not (= x10 x31))) (and (and (and (and (and (and (not (= x72 x92)) (and (and (and (and (not (= x133 x87)) (not (= x72 x87))) (not (= x87 x92))) (not (= x102 x87))) (not (= x72 x133)))) (not (= x72 x102))) (not (= x92 x133))) (not (= x102 x133))) (not (= x92 x102))) (and (not (= x17 x111)) (and (not (= x12 x111)) (and (not (= x17 x12)) (and (and (and (not (= x12 x97)) (and (and (and (not (= x12 x23)) (not (= x97 x23))) (not (= x23 x17))) (not (= x23 x111)))) (not (= x97 x17))) (not (= x111 x97)))))))) (and (and (and (not (= x77 x43)) (and (not (= x7 x73)) (and (not (= x43 x7)) (and (not (= x7 x77)) (and (and (and (not (= x67 x7)) (not (= x77 x67))) (not (= x43 x67))) (not (= x67 x73))))))) (not (= x73 x77))) (not (= x43 x73))))))))
(assert (and (and (and (not (= x60 (x115 x60 x60))) (and (not (= (x115 x156 x156) x156)) (not (= x123 (x115 x123 x123))))) (not (= (x115 x116 x116) x116))) (not (= x30 (x115 x30 x30)))))
(assert (and (= x30 (x115 x123 x116)) (and (= x116 (x115 x123 x60)) (and (= x60 (x115 x156 x156)) (= x156 (x115 x123 x123))))))
(check-sat)
(exit)
